proyfinal/src/viki/013/andrea/andrea-localstore/experimentInOfficeAgust.take6/worker_5/686c0922-dd54-49eb-8b6d-4e4dd39b056c.als.cnf.out
Reading from standard input... Use '--help' for help.
============================[ Problem Statistics ]=============================
|                                                                             |
|  Number of variables:         87638                                         |
|  Number of clauses:          161767                                         |
|  Parse time:                   0.04 s                                       |
|                                                                             |
============================[ Search Statistics ]==============================
| Conflicts |          ORIGINAL         |          LEARNT          | Progress |
|           |    Vars  Clauses Literals |    Limit  Clauses Lit/Cl |          |
===============================================================================
|       100 |   63156   107993   269852 |    39597      100     10 | 27.935 % |
|       250 |   63155   107949   269762 |    43557      249     39 | 27.937 % |
|       475 |   63155   107949   269762 |    47912      474     67 | 27.937 % |
|       812 |   63155   107949   269762 |    52704      811     74 | 27.937 % |
|      1318 |   63083   107649   269075 |    57974     1313     85 | 28.019 % |
|      2077 |   63079   107633   269031 |    63772     2056     82 | 28.023 % |
|      3216 |   63079   107633   269031 |    70149     3195     73 | 28.023 % |
|      4924 |   63023   107413   268493 |    77164     4898     77 | 28.087 % |
|      7486 |   62974   107217   268032 |    84880     7455     75 | 28.143 % |
|     11330 |   62974   107217   268032 |    93368    11299     75 | 28.143 % |
|     17096 |   62948   107074   267720 |   102705    16622     72 | 28.173 % |
===============================================================================
restarts              : 70
conflicts             : 20324          (6875 /sec)
decisions             : 69707          (0.00 % random) (23578 /sec)
propagations          : 29508185       (9981141 /sec)
conflict literals     : 1520894        (53.01 % deleted)
Memory used           : 40.04 MB
CPU time              : 2.95639 s

INDETERMINATE
